s td 126 13 152
b 1 3 41 109 129
b 2 4 51 85 109 144
b 3 5 73 136
b 4 9 53 129 144
b 5 12 30 56 70
b 6 14 136 139
b 7 17 19 71
b 8 17 35 96
b 9 16 36 55
b 10 39 74 136
b 11 46 120 127
b 12 15 47 67 108
b 13 48 121 136
b 14 20 41 49 109
b 15 15 17 50
b 16 17 54 108
b 17 59 71 125 146
b 18 40 61 91
b 19 62 78 101
b 20 60 68 85 109
b 21 74 121 136
b 22 40 58 75
b 23 40 58 91
b 24 17 76 146
b 25 17 30 87
b 26 31 96 98 117
b 27 20 41 53 104
b 28 20 53 110 144
b 29 33 118 136
b 30 121 136
b 31 20 109 123 144
b 32 44 124 136
b 33 64 126 136
b 34 64 73 136
b 35 17 31 131
b 36 13 24 97 137 138
b 37 2 17 147
b 38 60 101 150
b 39 25 136 152
b 40 30 70 122 134
b 41 63 73 136
b 42 120 127 136
b 43 11 52 88 143
b 44 16 55 66 151
b 45 21 24 80 144 148
b 46 25 44 103 136
b 47 6 28 135 140
b 48 33 65 136 139
b 49 1 24 32 72 83 92 97 111 112 114 122 136 138
b 50 24 72 83 92 97 111 112 114 119 122 136 138
b 51 17 24 55 83 92 111 114 119 122 136 138 142 143
b 52 2 17 24 55 83 100 111 114 119 122 136 142 143
b 53 2 17 83 84 100 111 114 119 122 136 142 143
b 54 2 17 52 83 84 100 111 114 119 122 136 143
b 55 2 17 52 83 84 88 111 119 122 136 143
b 56 2 17 18 83 84 88 111 119 122 136
b 57 2 17 18 84 111 119 122 136 145
b 58 2 17 43 84 111 119 122 136 145
b 59 2 17 43 71 105 111 122 136 145
b 60 2 71 103 105 111 122 136 145
b 61 2 7 71 103 111 122 145
b 62 7 23 71 103 122 145
b 63 23 71 94 122 145
b 64 44 103 105 136
b 65 2 17 43 71 105 111 122 146
b 66 2 22 43 105 111 122 146
b 67 2 22 43 102 105 111
b 68 22 43 102 105 113
b 69 83 84 100 114 132 142
b 70 82 100 114 132 142
b 71 2 17 24 55 83 86 100 106 111 114 119 122 136
b 72 2 17 83 86 100 106 111 114 119 122 136 141
b 73 2 17 29 83 86 106 111 119 122 136 141
b 74 2 10 17 29 83 106 111 119 122 136
b 75 2 10 17 81 106 111 119 122 136
b 76 2 17 30 81 106 111 122 136
b 77 2 30 81 106 111 122 136 139
b 78 2 30 34 81 111 122 136 139
b 79 2 26 34 81 111 136 139
b 80 26 34 65 81 136 139
b 81 8 26 34 65 81
b 82 2 30 106 111 122 133 139
b 83 30 42 106 122 133 139
b 84 30 42 106 122 134
b 85 29 79 86 136 141
b 86 17 24 55 83 86 100 106 114 119 122 151
b 87 37 55 83 100 106 114 119 151
b 88 27 37 83 106 119
b 89 37 55 66 100 114 151
b 90 37 66 93 100 114
b 91 17 24 55 86 96 122 151
b 92 17 31 96 122 151
b 93 24 55 86 95 96 122
b 94 86 95 96 122 149
b 95 17 55 92 108 122 138 142 143
b 96 17 55 108 115 122 138 142
b 97 15 17 108 115 122 142
b 98 15 107 115 122 142
b 99 55 89 92 108 122 143
b 100 38 89 108 122 143
b 101 24 57 72 97 112 119
b 102 1 24 32 72 83 97 111 112 114 116 122 136 138
b 103 1 24 32 69 72 97 111 112 114 116 122 136 138
b 104 1 13 24 32 69 72 97 101 112 116 122 136 138
b 105 1 13 24 32 40 69 72 97 101 112 122 136
b 106 1 6 24 40 69 72 101 112 122 130 136
b 107 6 24 40 69 72 101 109 112 130 136 148
b 108 6 24 40 69 101 109 136 144 148
b 109 6 40 53 69 101 109 136 144
b 110 6 40 41 53 69 109 144
b 111 20 40 41 53 109 144
b 112 6 41 53 69 109 129 144
b 113 53 85 101 109 136 144
b 114 51 85 101 109 136 144
b 115 1 6 122 130 135
b 116 1 6 135 140
b 117 37 45 66 93
b 118 60 85 101 109
b 119 53 78 85 101
b 120 63 79 86 136
b 121 82 90 132 142
b 122 72 99 109 112 130 148
b 123 51 101 127 136
b 124 42 128 133 139
b 125 32 72 77 92 97
b 126 20 40 53 91 144
1 112
2 114
3 41
4 112
5 40
6 77
7 59
8 91
9 44
10 21
11 42
12 97
13 30
14 111
15 97
16 95
17 65
18 126
19 119
20 118
21 30
22 23
23 126
24 65
25 76
26 92
27 111
28 111
29 48
30 49
31 111
32 64
33 34
34 41
35 92
36 104
37 52
38 118
39 46
40 84
41 120
42 123
43 55
44 89
45 108
46 64
47 116
48 80
49 125
49 50
49 102
50 51
50 101
51 52
51 95
52 53
52 71
53 54
53 69
54 55
55 56
56 57
57 58
58 59
59 60
59 65
60 61
60 64
61 62
62 63
65 66
66 67
67 68
69 70
70 121
71 72
71 86
72 73
73 74
73 85
74 75
75 76
76 77
77 78
77 82
78 79
79 80
80 81
82 83
83 124
83 84
85 120
86 87
86 91
87 88
87 89
89 90
90 117
91 92
91 93
93 94
95 96
95 99
96 97
97 98
99 100
102 103
103 104
104 105
105 106
106 107
106 115
107 122
107 108
108 109
109 110
109 113
110 111
110 112
111 126
113 118
113 119
113 114
114 123
115 116
